10
0 52 37 63 78 8 40 42 71 76 
52 0 32 54 57 75 23 55 95 42 
37 32 0 5 37 29 96 27 48 74 
63 54 5 0 21 74 69 92 98 90 
78 57 37 21 0 41 16 53 4 48 
8 75 29 74 41 0 59 40 97 14 
40 23 96 69 16 59 0 34 85 24 
42 55 27 92 53 40 34 0 83 92 
71 95 48 98 4 97 85 83 0 51 
76 42 74 90 48 14 24 92 51 0 
BRRBBBRRBR
